language Essence 1.3

letting codeWordLength be 48
letting dist be
        function((1, 1) --> 0, (1, 2) --> 17, (1, 3) --> 16, (1, 4) --> 12, (1, 5) --> 13, (1, 6) --> 6, (1, 7) --> 8,
                 (1, 8) --> 5, (1, 9) --> 7, (1, 10) --> 14, (1, 11) --> 21, (1, 12) --> 5, (1, 13) --> 11,
                 (1, 14) --> 0, (1, 15) --> 15, (1, 16) --> 3, (1, 17) --> 4, (1, 18) --> 20, (1, 19) --> 19,
                 (1, 20) --> 20, (1, 21) --> 20, (1, 22) --> 18, (1, 23) --> 18, (1, 24) --> 20, (1, 25) --> 21,
                 (1, 26) --> 8, (2, 1) --> 17, (2, 2) --> 0, (2, 3) --> 11, (2, 4) --> 12, (2, 5) --> 18, (2, 6) --> 7,
                 (2, 7) --> 2, (2, 8) --> 0, (2, 9) --> 17, (2, 10) --> 0, (2, 11) --> 8, (2, 12) --> 10,
                 (2, 13) --> 10, (2, 14) --> 1, (2, 15) --> 6, (2, 16) --> 20, (2, 17) --> 7, (2, 18) --> 14,
                 (2, 19) --> 16, (2, 20) --> 6, (2, 21) --> 19, (2, 22) --> 13, (2, 23) --> 22, (2, 24) --> 12,
                 (2, 25) --> 21, (2, 26) --> 21, (3, 1) --> 16, (3, 2) --> 11, (3, 3) --> 0, (3, 4) --> 18,
                 (3, 5) --> 3, (3, 6) --> 14, (3, 7) --> 14, (3, 8) --> 15, (3, 9) --> 20, (3, 10) --> 18,
                 (3, 11) --> 10, (3, 12) --> 22, (3, 13) --> 15, (3, 14) --> 22, (3, 15) --> 8, (3, 16) --> 7,
                 (3, 17) --> 8, (3, 18) --> 15, (3, 19) --> 22, (3, 20) --> 16, (3, 21) --> 18, (3, 22) --> 3,
                 (3, 23) --> 19, (3, 24) --> 13, (3, 25) --> 10, (3, 26) --> 0, (4, 1) --> 12, (4, 2) --> 12,
                 (4, 3) --> 18, (4, 4) --> 0, (4, 5) --> 15, (4, 6) --> 7, (4, 7) --> 18, (4, 8) --> 8, (4, 9) --> 7,
                 (4, 10) --> 7, (4, 11) --> 15, (4, 12) --> 2, (4, 13) --> 22, (4, 14) --> 16, (4, 15) --> 0,
                 (4, 16) --> 13, (4, 17) --> 7, (4, 18) --> 2, (4, 19) --> 7, (4, 20) --> 9, (4, 21) --> 2,
                 (4, 22) --> 2, (4, 23) --> 1, (4, 24) --> 14, (4, 25) --> 2, (4, 26) --> 14, (5, 1) --> 13,
                 (5, 2) --> 18, (5, 3) --> 3, (5, 4) --> 15, (5, 5) --> 0, (5, 6) --> 13, (5, 7) --> 5, (5, 8) --> 5,
                 (5, 9) --> 17, (5, 10) --> 17, (5, 11) --> 22, (5, 12) --> 2, (5, 13) --> 19, (5, 14) --> 2,
                 (5, 15) --> 2, (5, 16) --> 22, (5, 17) --> 5, (5, 18) --> 1, (5, 19) --> 6, (5, 20) --> 0,
                 (5, 21) --> 12, (5, 22) --> 2, (5, 23) --> 22, (5, 24) --> 2, (5, 25) --> 12, (5, 26) --> 20,
                 (6, 1) --> 6, (6, 2) --> 7, (6, 3) --> 14, (6, 4) --> 7, (6, 5) --> 13, (6, 6) --> 0, (6, 7) --> 9,
                 (6, 8) --> 9, (6, 9) --> 17, (6, 10) --> 3, (6, 11) --> 0, (6, 12) --> 19, (6, 13) --> 6,
                 (6, 14) --> 22, (6, 15) --> 2, (6, 16) --> 14, (6, 17) --> 15, (6, 18) --> 13, (6, 19) --> 21,
                 (6, 20) --> 1, (6, 21) --> 19, (6, 22) --> 2, (6, 23) --> 2, (6, 24) --> 20, (6, 25) --> 3,
                 (6, 26) --> 3, (7, 1) --> 8, (7, 2) --> 2, (7, 3) --> 14, (7, 4) --> 18, (7, 5) --> 5, (7, 6) --> 9,
                 (7, 7) --> 0, (7, 8) --> 1, (7, 9) --> 0, (7, 10) --> 22, (7, 11) --> 21, (7, 12) --> 20,
                 (7, 13) --> 20, (7, 14) --> 18, (7, 15) --> 19, (7, 16) --> 12, (7, 17) --> 3, (7, 18) --> 15,
                 (7, 19) --> 14, (7, 20) --> 20, (7, 21) --> 11, (7, 22) --> 14, (7, 23) --> 10, (7, 24) --> 3,
                 (7, 25) --> 11, (7, 26) --> 16, (8, 1) --> 5, (8, 2) --> 0, (8, 3) --> 15, (8, 4) --> 8, (8, 5) --> 5,
                 (8, 6) --> 9, (8, 7) --> 1, (8, 8) --> 0, (8, 9) --> 6, (8, 10) --> 4, (8, 11) --> 3, (8, 12) --> 9,
                 (8, 13) --> 0, (8, 14) --> 10, (8, 15) --> 6, (8, 16) --> 4, (8, 17) --> 7, (8, 18) --> 4,
                 (8, 19) --> 16, (8, 20) --> 16, (8, 21) --> 1, (8, 22) --> 11, (8, 23) --> 5, (8, 24) --> 6,
                 (8, 25) --> 19, (8, 26) --> 3, (9, 1) --> 7, (9, 2) --> 17, (9, 3) --> 20, (9, 4) --> 7, (9, 5) --> 17,
                 (9, 6) --> 17, (9, 7) --> 0, (9, 8) --> 6, (9, 9) --> 0, (9, 10) --> 7, (9, 11) --> 8, (9, 12) --> 20,
                 (9, 13) --> 1, (9, 14) --> 15, (9, 15) --> 10, (9, 16) --> 22, (9, 17) --> 10, (9, 18) --> 4,
                 (9, 19) --> 7, (9, 20) --> 12, (9, 21) --> 20, (9, 22) --> 0, (9, 23) --> 11, (9, 24) --> 22,
                 (9, 25) --> 0, (9, 26) --> 6, (10, 1) --> 14, (10, 2) --> 0, (10, 3) --> 18, (10, 4) --> 7,
                 (10, 5) --> 17, (10, 6) --> 3, (10, 7) --> 22, (10, 8) --> 4, (10, 9) --> 7, (10, 10) --> 0,
                 (10, 11) --> 8, (10, 12) --> 7, (10, 13) --> 13, (10, 14) --> 19, (10, 15) --> 14, (10, 16) --> 18,
                 (10, 17) --> 3, (10, 18) --> 1, (10, 19) --> 17, (10, 20) --> 18, (10, 21) --> 17, (10, 22) --> 4,
                 (10, 23) --> 7, (10, 24) --> 5, (10, 25) --> 13, (10, 26) --> 18, (11, 1) --> 21, (11, 2) --> 8,
                 (11, 3) --> 10, (11, 4) --> 15, (11, 5) --> 22, (11, 6) --> 0, (11, 7) --> 21, (11, 8) --> 3,
                 (11, 9) --> 8, (11, 10) --> 8, (11, 11) --> 0, (11, 12) --> 20, (11, 13) --> 8, (11, 14) --> 11,
                 (11, 15) --> 11, (11, 16) --> 16, (11, 17) --> 17, (11, 18) --> 9, (11, 19) --> 0, (11, 20) --> 13,
                 (11, 21) --> 11, (11, 22) --> 10, (11, 23) --> 15, (11, 24) --> 6, (11, 25) --> 16, (11, 26) --> 8,
                 (12, 1) --> 5, (12, 2) --> 10, (12, 3) --> 22, (12, 4) --> 2, (12, 5) --> 2, (12, 6) --> 19,
                 (12, 7) --> 20, (12, 8) --> 9, (12, 9) --> 20, (12, 10) --> 7, (12, 11) --> 20, (12, 12) --> 0,
                 (12, 13) --> 16, (12, 14) --> 7, (12, 15) --> 16, (12, 16) --> 16, (12, 17) --> 9, (12, 18) --> 0,
                 (12, 19) --> 0, (12, 20) --> 17, (12, 21) --> 4, (12, 22) --> 3, (12, 23) --> 18, (12, 24) --> 22,
                 (12, 25) --> 7, (12, 26) --> 22, (13, 1) --> 11, (13, 2) --> 10, (13, 3) --> 15, (13, 4) --> 22,
                 (13, 5) --> 19, (13, 6) --> 6, (13, 7) --> 20, (13, 8) --> 0, (13, 9) --> 1, (13, 10) --> 13,
                 (13, 11) --> 8, (13, 12) --> 16, (13, 13) --> 0, (13, 14) --> 7, (13, 15) --> 13, (13, 16) --> 21,
                 (13, 17) --> 10, (13, 18) --> 11, (13, 19) --> 3, (13, 20) --> 8, (13, 21) --> 21, (13, 22) --> 19,
                 (13, 23) --> 1, (13, 24) --> 14, (13, 25) --> 14, (13, 26) --> 9, (14, 1) --> 0, (14, 2) --> 1,
                 (14, 3) --> 22, (14, 4) --> 16, (14, 5) --> 2, (14, 6) --> 22, (14, 7) --> 18, (14, 8) --> 10,
                 (14, 9) --> 15, (14, 10) --> 19, (14, 11) --> 11, (14, 12) --> 7, (14, 13) --> 7, (14, 14) --> 0,
                 (14, 15) --> 6, (14, 16) --> 2, (14, 17) --> 17, (14, 18) --> 9, (14, 19) --> 6, (14, 20) --> 15,
                 (14, 21) --> 9, (14, 22) --> 3, (14, 23) --> 10, (14, 24) --> 5, (14, 25) --> 5, (14, 26) --> 7,
                 (15, 1) --> 15, (15, 2) --> 6, (15, 3) --> 8, (15, 4) --> 0, (15, 5) --> 2, (15, 6) --> 2,
                 (15, 7) --> 19, (15, 8) --> 6, (15, 9) --> 10, (15, 10) --> 14, (15, 11) --> 11, (15, 12) --> 16,
                 (15, 13) --> 13, (15, 14) --> 6, (15, 15) --> 0, (15, 16) --> 19, (15, 17) --> 17, (15, 18) --> 4,
                 (15, 19) --> 0, (15, 20) --> 20, (15, 21) --> 11, (15, 22) --> 17, (15, 23) --> 17, (15, 24) --> 2,
                 (15, 25) --> 14, (15, 26) --> 0, (16, 1) --> 3, (16, 2) --> 20, (16, 3) --> 7, (16, 4) --> 13,
                 (16, 5) --> 22, (16, 6) --> 14, (16, 7) --> 12, (16, 8) --> 4, (16, 9) --> 22, (16, 10) --> 18,
                 (16, 11) --> 16, (16, 12) --> 16, (16, 13) --> 21, (16, 14) --> 2, (16, 15) --> 19, (16, 16) --> 0,
                 (16, 17) --> 22, (16, 18) --> 22, (16, 19) --> 15, (16, 20) --> 0, (16, 21) --> 3, (16, 22) --> 11,
                 (16, 23) --> 4, (16, 24) --> 11, (16, 25) --> 22, (16, 26) --> 2, (17, 1) --> 4, (17, 2) --> 7,
                 (17, 3) --> 8, (17, 4) --> 7, (17, 5) --> 5, (17, 6) --> 15, (17, 7) --> 3, (17, 8) --> 7,
                 (17, 9) --> 10, (17, 10) --> 3, (17, 11) --> 17, (17, 12) --> 9, (17, 13) --> 10, (17, 14) --> 17,
                 (17, 15) --> 17, (17, 16) --> 22, (17, 17) --> 0, (17, 18) --> 5, (17, 19) --> 6, (17, 20) --> 3,
                 (17, 21) --> 0, (17, 22) --> 4, (17, 23) --> 5, (17, 24) --> 19, (17, 25) --> 19, (17, 26) --> 17,
                 (18, 1) --> 20, (18, 2) --> 14, (18, 3) --> 15, (18, 4) --> 2, (18, 5) --> 1, (18, 6) --> 13,
                 (18, 7) --> 15, (18, 8) --> 4, (18, 9) --> 4, (18, 10) --> 1, (18, 11) --> 9, (18, 12) --> 0,
                 (18, 13) --> 11, (18, 14) --> 9, (18, 15) --> 4, (18, 16) --> 22, (18, 17) --> 5, (18, 18) --> 0,
                 (18, 19) --> 10, (18, 20) --> 14, (18, 21) --> 14, (18, 22) --> 14, (18, 23) --> 3, (18, 24) --> 11,
                 (18, 25) --> 6, (18, 26) --> 4, (19, 1) --> 19, (19, 2) --> 16, (19, 3) --> 22, (19, 4) --> 7,
                 (19, 5) --> 6, (19, 6) --> 21, (19, 7) --> 14, (19, 8) --> 16, (19, 9) --> 7, (19, 10) --> 17,
                 (19, 11) --> 0, (19, 12) --> 0, (19, 13) --> 3, (19, 14) --> 6, (19, 15) --> 0, (19, 16) --> 15,
                 (19, 17) --> 6, (19, 18) --> 10, (19, 19) --> 0, (19, 20) --> 21, (19, 21) --> 16, (19, 22) --> 0,
                 (19, 23) --> 0, (19, 24) --> 3, (19, 25) --> 14, (19, 26) --> 13, (20, 1) --> 20, (20, 2) --> 6,
                 (20, 3) --> 16, (20, 4) --> 9, (20, 5) --> 0, (20, 6) --> 1, (20, 7) --> 20, (20, 8) --> 16,
                 (20, 9) --> 12, (20, 10) --> 18, (20, 11) --> 13, (20, 12) --> 17, (20, 13) --> 8, (20, 14) --> 15,
                 (20, 15) --> 20, (20, 16) --> 0, (20, 17) --> 3, (20, 18) --> 14, (20, 19) --> 21, (20, 20) --> 0,
                 (20, 21) --> 10, (20, 22) --> 17, (20, 23) --> 21, (20, 24) --> 12, (20, 25) --> 15, (20, 26) --> 21,
                 (21, 1) --> 20, (21, 2) --> 19, (21, 3) --> 18, (21, 4) --> 2, (21, 5) --> 12, (21, 6) --> 19,
                 (21, 7) --> 11, (21, 8) --> 1, (21, 9) --> 20, (21, 10) --> 17, (21, 11) --> 11, (21, 12) --> 4,
                 (21, 13) --> 21, (21, 14) --> 9, (21, 15) --> 11, (21, 16) --> 3, (21, 17) --> 0, (21, 18) --> 14,
                 (21, 19) --> 16, (21, 20) --> 10, (21, 21) --> 0, (21, 22) --> 6, (21, 23) --> 22, (21, 24) --> 22,
                 (21, 25) --> 20, (21, 26) --> 12, (22, 1) --> 18, (22, 2) --> 13, (22, 3) --> 3, (22, 4) --> 2,
                 (22, 5) --> 2, (22, 6) --> 2, (22, 7) --> 14, (22, 8) --> 11, (22, 9) --> 0, (22, 10) --> 4,
                 (22, 11) --> 10, (22, 12) --> 3, (22, 13) --> 19, (22, 14) --> 3, (22, 15) --> 17, (22, 16) --> 11,
                 (22, 17) --> 4, (22, 18) --> 14, (22, 19) --> 0, (22, 20) --> 17, (22, 21) --> 6, (22, 22) --> 0,
                 (22, 23) --> 0, (22, 24) --> 17, (22, 25) --> 5, (22, 26) --> 11, (23, 1) --> 18, (23, 2) --> 22,
                 (23, 3) --> 19, (23, 4) --> 1, (23, 5) --> 22, (23, 6) --> 2, (23, 7) --> 10, (23, 8) --> 5,
                 (23, 9) --> 11, (23, 10) --> 7, (23, 11) --> 15, (23, 12) --> 18, (23, 13) --> 1, (23, 14) --> 10,
                 (23, 15) --> 17, (23, 16) --> 4, (23, 17) --> 5, (23, 18) --> 3, (23, 19) --> 0, (23, 20) --> 21,
                 (23, 21) --> 22, (23, 22) --> 0, (23, 23) --> 0, (23, 24) --> 4, (23, 25) --> 0, (23, 26) --> 13,
                 (24, 1) --> 20, (24, 2) --> 12, (24, 3) --> 13, (24, 4) --> 14, (24, 5) --> 2, (24, 6) --> 20,
                 (24, 7) --> 3, (24, 8) --> 6, (24, 9) --> 22, (24, 10) --> 5, (24, 11) --> 6, (24, 12) --> 22,
                 (24, 13) --> 14, (24, 14) --> 5, (24, 15) --> 2, (24, 16) --> 11, (24, 17) --> 19, (24, 18) --> 11,
                 (24, 19) --> 3, (24, 20) --> 12, (24, 21) --> 22, (24, 22) --> 17, (24, 23) --> 4, (24, 24) --> 0,
                 (24, 25) --> 16, (24, 26) --> 9, (25, 1) --> 21, (25, 2) --> 21, (25, 3) --> 10, (25, 4) --> 2,
                 (25, 5) --> 12, (25, 6) --> 3, (25, 7) --> 11, (25, 8) --> 19, (25, 9) --> 0, (25, 10) --> 13,
                 (25, 11) --> 16, (25, 12) --> 7, (25, 13) --> 14, (25, 14) --> 5, (25, 15) --> 14, (25, 16) --> 22,
                 (25, 17) --> 19, (25, 18) --> 6, (25, 19) --> 14, (25, 20) --> 15, (25, 21) --> 20, (25, 22) --> 5,
                 (25, 23) --> 0, (25, 24) --> 16, (25, 25) --> 0, (25, 26) --> 12, (26, 1) --> 8, (26, 2) --> 21,
                 (26, 3) --> 0, (26, 4) --> 14, (26, 5) --> 20, (26, 6) --> 3, (26, 7) --> 16, (26, 8) --> 3,
                 (26, 9) --> 6, (26, 10) --> 18, (26, 11) --> 8, (26, 12) --> 22, (26, 13) --> 9, (26, 14) --> 7,
                 (26, 15) --> 0, (26, 16) --> 2, (26, 17) --> 17, (26, 18) --> 4, (26, 19) --> 13, (26, 20) --> 21,
                 (26, 21) --> 12, (26, 22) --> 11, (26, 23) --> 13, (26, 24) --> 9, (26, 25) --> 12, (26, 26) --> 0)
letting maxDist be 22
letting minDist be 182
letting nbCharacter be 26
letting numOfCodeWords be 9
